p cnf 200 1110
-101 36 0
-101 78 0
-101 -39 0
-101 -97 0
-101 42 0
-101 13 0
-101 -16 0
-101 -23 0
-101 -15 0
-101 -38 0
101 -36 -78 39 97 -42 -13 16 23 15 38 0
-102 -81 0
-102 51 0
-102 -27 0
-102 -46 0
-102 -64 0
-102 -40 0
-102 7 0
-102 -97 0
-102 94 0
-102 -99 0
102 81 -51 27 46 64 40 -7 97 -94 99 0
-103 -55 0
-103 70 0
-103 -37 0
-103 56 0
-103 92 0
-103 65 0
-103 -90 0
-103 11 0
-103 82 0
-103 -7 0
103 55 -70 37 -56 -92 -65 90 -11 -82 7 0
-104 79 0
-104 -24 0
-104 51 0
-104 -69 0
-104 30 0
-104 -83 0
-104 6 0
-104 -73 0
-104 56 0
-104 71 0
104 -79 24 -51 69 -30 83 -6 73 -56 -71 0
-105 -56 0
-105 63 0
-105 91 0
-105 -94 0
-105 -18 0
-105 76 0
-105 68 0
-105 15 0
-105 28 0
-105 50 0
105 56 -63 -91 94 18 -76 -68 -15 -28 -50 0
-106 -77 0
-106 43 0
-106 34 0
-106 29 0
-106 30 0
-106 24 0
-106 -63 0
-106 3 0
-106 -35 0
-106 -32 0
106 77 -43 -34 -29 -30 -24 63 -3 35 32 0
-107 -45 0
-107 -68 0
-107 92 0
-107 -54 0
-107 46 0
-107 38 0
-107 -16 0
-107 44 0
-107 -9 0
-107 62 0
107 45 68 -92 54 -46 -38 16 -44 9 -62 0
-108 -27 0
-108 63 0
-108 69 0
-108 -17 0
-108 31 0
-108 41 0
-108 68 0
-108 4 0
-108 66 0
-108 77 0
108 27 -63 -69 17 -31 -41 -68 -4 -66 -77 0
-109 29 0
-109 -51 0
-109 73 0
-109 -45 0
-109 30 0
-109 -49 0
-109 -90 0
-109 -7 0
-109 22 0
-109 89 0
109 -29 51 -73 45 -30 49 90 7 -22 -89 0
-110 51 0
-110 -93 0
-110 88 0
-110 -30 0
-110 8 0
-110 -20 0
-110 21 0
-110 -28 0
-110 -72 0
-110 16 0
110 -51 93 -88 30 -8 20 -21 28 72 -16 0
101 102 103 104 105 106 107 108 109 110 0
-111 -17 0
-111 39 0
-111 15 0
-111 71 0
-111 -25 0
-111 43 0
-111 50 0
-111 52 0
-111 -19 0
-111 -61 0
111 17 -39 -15 -71 25 -43 -50 -52 19 61 0
-112 19 0
-112 65 0
-112 -7 0
-112 40 0
-112 63 0
-112 -87 0
-112 -88 0
-112 6 0
-112 -92 0
-112 -85 0
112 -19 -65 7 -40 -63 87 88 -6 92 85 0
-113 57 0
-113 -52 0
-113 -88 0
-113 -32 0
-113 -51 0
-113 42 0
-113 -1 0
-113 -35 0
-113 37 0
-113 36 0
113 -57 52 88 32 51 -42 1 35 -37 -36 0
-114 11 0
-114 81 0
-114 78 0
-114 35 0
-114 -89 0
-114 -25 0
-114 -73 0
-114 84 0
-114 87 0
-114 100 0
114 -11 -81 -78 -35 89 25 73 -84 -87 -100 0
-115 16 0
-115 -69 0
-115 93 0
-115 -43 0
-115 -45 0
-115 64 0
-115 26 0
-115 -56 0
-115 -59 0
-115 -83 0
115 -16 69 -93 43 45 -64 -26 56 59 83 0
-116 77 0
-116 60 0
-116 18 0
-116 78 0
-116 -23 0
-116 68 0
-116 22 0
-116 -35 0
-116 50 0
-116 75 0
116 -77 -60 -18 -78 23 -68 -22 35 -50 -75 0
-117 -71 0
-117 -6 0
-117 83 0
-117 33 0
-117 47 0
-117 53 0
-117 4 0
-117 99 0
-117 46 0
-117 -97 0
117 71 6 -83 -33 -47 -53 -4 -99 -46 97 0
-118 -59 0
-118 -7 0
-118 -49 0
-118 -50 0
-118 -12 0
-118 76 0
-118 -23 0
-118 -10 0
-118 71 0
-118 72 0
118 59 7 49 50 12 -76 23 10 -71 -72 0
-119 -83 0
-119 -13 0
-119 51 0
-119 99 0
-119 -11 0
-119 18 0
-119 -55 0
-119 70 0
-119 17 0
-119 -48 0
119 83 13 -51 -99 11 -18 55 -70 -17 48 0
-120 13 0
-120 -98 0
-120 25 0
-120 -50 0
-120 93 0
-120 20 0
-120 61 0
-120 72 0
-120 54 0
-120 47 0
120 -13 98 -25 50 -93 -20 -61 -72 -54 -47 0
111 112 113 114 115 116 117 118 119 120 0
-121 -71 0
-121 20 0
-121 -11 0
-121 -58 0
-121 50 0
-121 -5 0
-121 -80 0
-121 69 0
-121 -30 0
-121 -66 0
121 71 -20 11 58 -50 5 80 -69 30 66 0
-122 -24 0
-122 -97 0
-122 44 0
-122 89 0
-122 29 0
-122 60 0
-122 14 0
-122 31 0
-122 92 0
-122 54 0
122 24 97 -44 -89 -29 -60 -14 -31 -92 -54 0
-123 -50 0
-123 1 0
-123 -23 0
-123 -11 0
-123 -39 0
-123 -4 0
-123 79 0
-123 -66 0
-123 51 0
-123 -82 0
123 50 -1 23 11 39 4 -79 66 -51 82 0
-124 86 0
-124 -29 0
-124 -90 0
-124 -30 0
-124 -14 0
-124 -10 0
-124 5 0
-124 27 0
-124 -32 0
-124 43 0
124 -86 29 90 30 14 10 -5 -27 32 -43 0
-125 39 0
-125 16 0
-125 18 0
-125 -58 0
-125 51 0
-125 93 0
-125 65 0
-125 21 0
-125 -38 0
-125 17 0
125 -39 -16 -18 58 -51 -93 -65 -21 38 -17 0
-126 -42 0
-126 -23 0
-126 -49 0
-126 -38 0
-126 96 0
-126 25 0
-126 73 0
-126 19 0
-126 -52 0
-126 17 0
126 42 23 49 38 -96 -25 -73 -19 52 -17 0
-127 90 0
-127 -76 0
-127 79 0
-127 -50 0
-127 -100 0
-127 44 0
-127 60 0
-127 92 0
-127 32 0
-127 -82 0
127 -90 76 -79 50 100 -44 -60 -92 -32 82 0
-128 95 0
-128 44 0
-128 99 0
-128 96 0
-128 86 0
-128 -46 0
-128 -21 0
-128 54 0
-128 -55 0
-128 -6 0
128 -95 -44 -99 -96 -86 46 21 -54 55 6 0
-129 39 0
-129 64 0
-129 -63 0
-129 -47 0
-129 -13 0
-129 3 0
-129 32 0
-129 22 0
-129 48 0
-129 -72 0
129 -39 -64 63 47 13 -3 -32 -22 -48 72 0
-130 -15 0
-130 -55 0
-130 -12 0
-130 -20 0
-130 46 0
-130 29 0
-130 -71 0
-130 72 0
-130 -23 0
-130 10 0
130 15 55 12 20 -46 -29 71 -72 23 -10 0
121 122 123 124 125 126 127 128 129 130 0
-131 19 0
-131 -76 0
-131 -97 0
-131 4 0
-131 50 0
-131 -39 0
-131 45 0
-131 -69 0
-131 -43 0
-131 -21 0
131 -19 76 97 -4 -50 39 -45 69 43 21 0
-132 77 0
-132 -23 0
-132 71 0
-132 21 0
-132 -16 0
-132 76 0
-132 -92 0
-132 99 0
-132 14 0
-132 6 0
132 -77 23 -71 -21 16 -76 92 -99 -14 -6 0
-133 77 0
-133 28 0
-133 69 0
-133 -71 0
-133 36 0
-133 13 0
-133 -11 0
-133 53 0
-133 67 0
-133 60 0
133 -77 -28 -69 71 -36 -13 11 -53 -67 -60 0
-134 -65 0
-134 -95 0
-134 -66 0
-134 -82 0
-134 85 0
-134 -45 0
-134 43 0
-134 3 0
-134 80 0
-134 -99 0
134 65 95 66 82 -85 45 -43 -3 -80 99 0
-135 95 0
-135 -24 0
-135 -80 0
-135 6 0
-135 71 0
-135 -19 0
-135 18 0
-135 33 0
-135 -4 0
-135 81 0
135 -95 24 80 -6 -71 19 -18 -33 4 -81 0
-136 17 0
-136 44 0
-136 -30 0
-136 -39 0
-136 9 0
-136 32 0
-136 -38 0
-136 -61 0
-136 25 0
-136 53 0
136 -17 -44 30 39 -9 -32 38 61 -25 -53 0
-137 -95 0
-137 77 0
-137 13 0
-137 50 0
-137 -20 0
-137 -88 0
-137 67 0
-137 69 0
-137 -44 0
-137 -84 0
137 95 -77 -13 -50 20 88 -67 -69 44 84 0
-138 81 0
-138 -83 0
-138 92 0
-138 80 0
-138 69 0
-138 -91 0
-138 -32 0
-138 -3 0
-138 75 0
-138 8 0
138 -81 83 -92 -80 -69 91 32 3 -75 -8 0
-139 17 0
-139 48 0
-139 39 0
-139 22 0
-139 47 0
-139 -14 0
-139 59 0
-139 -40 0
-139 -57 0
-139 -13 0
139 -17 -48 -39 -22 -47 14 -59 40 57 13 0
-140 -89 0
-140 21 0
-140 68 0
-140 -35 0
-140 70 0
-140 33 0
-140 -19 0
-140 -4 0
-140 -83 0
-140 88 0
140 89 -21 -68 35 -70 -33 19 4 83 -88 0
131 132 133 134 135 136 137 138 139 140 0
-141 -11 0
-141 18 0
-141 83 0
-141 77 0
-141 92 0
-141 -39 0
-141 54 0
-141 -1 0
-141 41 0
-141 -26 0
141 11 -18 -83 -77 -92 39 -54 1 -41 26 0
-142 51 0
-142 33 0
-142 70 0
-142 15 0
-142 36 0
-142 -58 0
-142 69 0
-142 -24 0
-142 86 0
-142 96 0
142 -51 -33 -70 -15 -36 58 -69 24 -86 -96 0
-143 21 0
-143 -86 0
-143 -60 0
-143 -90 0
-143 31 0
-143 -85 0
-143 -70 0
-143 -49 0
-143 88 0
-143 12 0
143 -21 86 60 90 -31 85 70 49 -88 -12 0
-144 59 0
-144 64 0
-144 32 0
-144 11 0
-144 68 0
-144 60 0
-144 -28 0
-144 34 0
-144 -62 0
-144 -30 0
144 -59 -64 -32 -11 -68 -60 28 -34 62 30 0
-145 88 0
-145 -44 0
-145 -10 0
-145 -40 0
-145 -18 0
-145 33 0
-145 -52 0
-145 59 0
-145 -17 0
-145 83 0
145 -88 44 10 40 18 -33 52 -59 17 -83 0
-146 8 0
-146 95 0
-146 46 0
-146 37 0
-146 11 0
-146 100 0
-146 -30 0
-146 -58 0
-146 67 0
-146 55 0
146 -8 -95 -46 -37 -11 -100 30 58 -67 -55 0
-147 -89 0
-147 87 0
-147 -75 0
-147 -54 0
-147 80 0
-147 -76 0
-147 -2 0
-147 -51 0
-147 12 0
-147 42 0
147 89 -87 75 54 -80 76 2 51 -12 -42 0
-148 96 0
-148 50 0
-148 16 0
-148 -60 0
-148 -52 0
-148 53 0
-148 -62 0
-148 -45 0
-148 3 0
-148 -75 0
148 -96 -50 -16 60 52 -53 62 45 -3 75 0
-149 5 0
-149 23 0
-149 71 0
-149 -77 0
-149 -8 0
-149 30 0
-149 4 0
-149 -6 0
-149 53 0
-149 65 0
149 -5 -23 -71 77 8 -30 -4 6 -53 -65 0
-150 78 0
-150 96 0
-150 35 0
-150 51 0
-150 76 0
-150 56 0
-150 -28 0
-150 55 0
-150 -6 0
-150 29 0
150 -78 -96 -35 -51 -76 -56 28 -55 6 -29 0
141 142 143 144 145 146 147 148 149 150 0
-151 54 0
-151 -32 0
-151 -27 0
-151 7 0
-151 72 0
-151 -47 0
-151 -1 0
-151 -4 0
-151 79 0
-151 -100 0
151 -54 32 27 -7 -72 47 1 4 -79 100 0
-152 2 0
-152 -40 0
-152 -12 0
-152 51 0
-152 -99 0
-152 59 0
-152 -15 0
-152 -30 0
-152 100 0
-152 -34 0
152 -2 40 12 -51 99 -59 15 30 -100 34 0
-153 31 0
-153 27 0
-153 -55 0
-153 -9 0
-153 37 0
-153 41 0
-153 -32 0
-153 -87 0
-153 -40 0
-153 -6 0
153 -31 -27 55 9 -37 -41 32 87 40 6 0
-154 -24 0
-154 -66 0
-154 -23 0
-154 -87 0
-154 8 0
-154 84 0
-154 -89 0
-154 -1 0
-154 -74 0
-154 70 0
154 24 66 23 87 -8 -84 89 1 74 -70 0
-155 -12 0
-155 -26 0
-155 -32 0
-155 -44 0
-155 -70 0
-155 -22 0
-155 3 0
-155 74 0
-155 43 0
-155 18 0
155 12 26 32 44 70 22 -3 -74 -43 -18 0
-156 -4 0
-156 60 0
-156 -100 0
-156 52 0
-156 -82 0
-156 6 0
-156 40 0
-156 -23 0
-156 61 0
-156 -29 0
156 4 -60 100 -52 82 -6 -40 23 -61 29 0
-157 58 0
-157 -11 0
-157 -56 0
-157 -28 0
-157 -97 0
-157 83 0
-157 -96 0
-157 12 0
-157 94 0
-157 81 0
157 -58 11 56 28 97 -83 96 -12 -94 -81 0
-158 -58 0
-158 47 0
-158 97 0
-158 1 0
-158 -20 0
-158 -63 0
-158 -73 0
-158 94 0
-158 -8 0
-158 60 0
158 58 -47 -97 -1 20 63 73 -94 8 -60 0
-159 54 0
-159 50 0
-159 75 0
-159 -2 0
-159 -61 0
-159 -13 0
-159 -38 0
-159 -31 0
-159 11 0
-159 47 0
159 -54 -50 -75 2 61 13 38 31 -11 -47 0
-160 25 0
-160 -34 0
-160 -45 0
-160 33 0
-160 -10 0
-160 26 0
-160 94 0
-160 40 0
-160 30 0
-160 46 0
160 -25 34 45 -33 10 -26 -94 -40 -30 -46 0
151 152 153 154 155 156 157 158 159 160 0
-161 56 0
-161 -5 0
-161 -3 0
-161 -18 0
-161 55 0
-161 33 0
-161 -17 0
-161 -45 0
-161 69 0
-161 -71 0
161 -56 5 3 18 -55 -33 17 45 -69 71 0
-162 -65 0
-162 67 0
-162 18 0
-162 60 0
-162 -68 0
-162 -95 0
-162 -4 0
-162 73 0
-162 56 0
-162 41 0
162 65 -67 -18 -60 68 95 4 -73 -56 -41 0
-163 54 0
-163 10 0
-163 -74 0
-163 23 0
-163 62 0
-163 -18 0
-163 -44 0
-163 -67 0
-163 -39 0
-163 -80 0
163 -54 -10 74 -23 -62 18 44 67 39 80 0
-164 99 0
-164 14 0
-164 -63 0
-164 -91 0
-164 34 0
-164 -48 0
-164 90 0
-164 -15 0
-164 -52 0
-164 22 0
164 -99 -14 63 91 -34 48 -90 15 52 -22 0
-165 44 0
-165 53 0
-165 -66 0
-165 -61 0
-165 55 0
-165 -11 0
-165 38 0
-165 -65 0
-165 78 0
-165 -77 0
165 -44 -53 66 61 -55 11 -38 65 -78 77 0
-166 -97 0
-166 -95 0
-166 -59 0
-166 36 0
-166 45 0
-166 21 0
-166 69 0
-166 83 0
-166 -42 0
-166 65 0
166 97 95 59 -36 -45 -21 -69 -83 42 -65 0
-167 78 0
-167 -76 0
-167 97 0
-167 30 0
-167 -86 0
-167 -22 0
-167 20 0
-167 69 0
-167 -1 0
-167 38 0
167 -78 76 -97 -30 86 22 -20 -69 1 -38 0
-168 -26 0
-168 -45 0
-168 -16 0
-168 81 0
-168 -5 0
-168 -71 0
-168 -92 0
-168 -95 0
-168 99 0
-168 -38 0
168 26 45 16 -81 5 71 92 95 -99 38 0
-169 -69 0
-169 75 0
-169 -87 0
-169 59 0
-169 96 0
-169 -4 0
-169 26 0
-169 -41 0
-169 13 0
-169 60 0
169 69 -75 87 -59 -96 4 -26 41 -13 -60 0
-170 -90 0
-170 27 0
-170 -26 0
-170 25 0
-170 -32 0
-170 -16 0
-170 49 0
-170 -23 0
-170 -19 0
-170 -53 0
170 90 -27 26 -25 32 16 -49 23 19 53 0
161 162 163 164 165 166 167 168 169 170 0
-171 12 0
-171 -46 0
-171 -82 0
-171 -26 0
-171 21 0
-171 -54 0
-171 -88 0
-171 43 0
-171 -100 0
-171 -19 0
171 -12 46 82 26 -21 54 88 -43 100 19 0
-172 3 0
-172 8 0
-172 42 0
-172 65 0
-172 66 0
-172 62 0
-172 26 0
-172 37 0
-172 -73 0
-172 -23 0
172 -3 -8 -42 -65 -66 -62 -26 -37 73 23 0
-173 -76 0
-173 -62 0
-173 60 0
-173 78 0
-173 29 0
-173 -31 0
-173 -6 0
-173 52 0
-173 32 0
-173 26 0
173 76 62 -60 -78 -29 31 6 -52 -32 -26 0
-174 3 0
-174 -76 0
-174 84 0
-174 47 0
-174 33 0
-174 -39 0
-174 7 0
-174 -77 0
-174 -1 0
-174 69 0
174 -3 76 -84 -47 -33 39 -7 77 1 -69 0
-175 -60 0
-175 -47 0
-175 27 0
-175 -17 0
-175 -85 0
-175 -48 0
-175 93 0
-175 28 0
-175 -84 0
-175 -75 0
175 60 47 -27 17 85 48 -93 -28 84 75 0
-176 -84 0
-176 -22 0
-176 14 0
-176 63 0
-176 99 0
-176 -87 0
-176 3 0
-176 -28 0
-176 -93 0
-176 -15 0
176 84 22 -14 -63 -99 87 -3 28 93 15 0
-177 -87 0
-177 -39 0
-177 74 0
-177 -18 0
-177 4 0
-177 89 0
-177 42 0
-177 -52 0
-177 45 0
-177 -64 0
177 87 39 -74 18 -4 -89 -42 52 -45 64 0
-178 -33 0
-178 77 0
-178 84 0
-178 5 0
-178 32 0
-178 70 0
-178 96 0
-178 52 0
-178 -82 0
-178 29 0
178 33 -77 -84 -5 -32 -70 -96 -52 82 -29 0
-179 -51 0
-179 -26 0
-179 -72 0
-179 65 0
-179 -12 0
-179 61 0
-179 27 0
-179 43 0
-179 -41 0
-179 18 0
179 51 26 72 -65 12 -61 -27 -43 41 -18 0
-180 74 0
-180 25 0
-180 54 0
-180 -73 0
-180 68 0
-180 -31 0
-180 -56 0
-180 57 0
-180 86 0
-180 28 0
180 -74 -25 -54 73 -68 31 56 -57 -86 -28 0
171 172 173 174 175 176 177 178 179 180 0
-181 78 0
-181 42 0
-181 -6 0
-181 65 0
-181 49 0
-181 68 0
-181 28 0
-181 -56 0
-181 -23 0
-181 -54 0
181 -78 -42 6 -65 -49 -68 -28 56 23 54 0
-182 17 0
-182 -45 0
-182 -38 0
-182 42 0
-182 -87 0
-182 -10 0
-182 -48 0
-182 -57 0
-182 43 0
-182 32 0
182 -17 45 38 -42 87 10 48 57 -43 -32 0
-183 -90 0
-183 -16 0
-183 87 0
-183 94 0
-183 -99 0
-183 -100 0
-183 -56 0
-183 50 0
-183 49 0
-183 -22 0
183 90 16 -87 -94 99 100 56 -50 -49 22 0
-184 -80 0
-184 54 0
-184 -92 0
-184 -60 0
-184 70 0
-184 -36 0
-184 64 0
-184 -33 0
-184 -68 0
-184 -50 0
184 80 -54 92 60 -70 36 -64 33 68 50 0
-185 59 0
-185 -40 0
-185 99 0
-185 -66 0
-185 8 0
-185 -50 0
-185 75 0
-185 -23 0
-185 -57 0
-185 -19 0
185 -59 40 -99 66 -8 50 -75 23 57 19 0
-186 1 0
-186 65 0
-186 97 0
-186 20 0
-186 16 0
-186 -60 0
-186 58 0
-186 87 0
-186 -33 0
-186 93 0
186 -1 -65 -97 -20 -16 60 -58 -87 33 -93 0
-187 67 0
-187 -37 0
-187 61 0
-187 55 0
-187 63 0
-187 22 0
-187 -35 0
-187 -51 0
-187 56 0
-187 16 0
187 -67 37 -61 -55 -63 -22 35 51 -56 -16 0
-188 75 0
-188 96 0
-188 -64 0
-188 -24 0
-188 15 0
-188 3 0
-188 -23 0
-188 35 0
-188 81 0
-188 -79 0
188 -75 -96 64 24 -15 -3 23 -35 -81 79 0
-189 -10 0
-189 -86 0
-189 58 0
-189 -21 0
-189 -28 0
-189 74 0
-189 56 0
-189 69 0
-189 -81 0
-189 99 0
189 10 86 -58 21 28 -74 -56 -69 81 -99 0
-190 -80 0
-190 35 0
-190 -14 0
-190 -89 0
-190 -40 0
-190 -47 0
-190 -33 0
-190 -2 0
-190 95 0
-190 -36 0
190 80 -35 14 89 40 47 33 2 -95 36 0
181 182 183 184 185 186 187 188 189 190 0
-191 -7 0
-191 -14 0
-191 -95 0
-191 50 0
-191 -54 0
-191 13 0
-191 96 0
-191 41 0
-191 99 0
-191 49 0
191 7 14 95 -50 54 -13 -96 -41 -99 -49 0
-192 -51 0
-192 72 0
-192 -46 0
-192 -69 0
-192 -52 0
-192 -34 0
-192 8 0
-192 -65 0
-192 57 0
-192 9 0
192 51 -72 46 69 52 34 -8 65 -57 -9 0
-193 -74 0
-193 -6 0
-193 -9 0
-193 -15 0
-193 -52 0
-193 76 0
-193 68 0
-193 98 0
-193 -45 0
-193 -43 0
193 74 6 9 15 52 -76 -68 -98 45 43 0
-194 -28 0
-194 4 0
-194 -65 0
-194 -81 0
-194 71 0
-194 -43 0
-194 46 0
-194 17 0
-194 -82 0
-194 -38 0
194 28 -4 65 81 -71 43 -46 -17 82 38 0
-195 -73 0
-195 -43 0
-195 51 0
-195 -97 0
-195 -67 0
-195 29 0
-195 -63 0
-195 -48 0
-195 -37 0
-195 -100 0
195 73 43 -51 97 67 -29 63 48 37 100 0
-196 96 0
-196 -56 0
-196 2 0
-196 -24 0
-196 75 0
-196 -20 0
-196 -88 0
-196 22 0
-196 -35 0
-196 -5 0
196 -96 56 -2 24 -75 20 88 -22 35 5 0
-197 95 0
-197 37 0
-197 76 0
-197 -89 0
-197 -35 0
-197 -72 0
-197 1 0
-197 -31 0
-197 -30 0
-197 70 0
197 -95 -37 -76 89 35 72 -1 31 30 -70 0
-198 57 0
-198 -14 0
-198 -68 0
-198 -6 0
-198 33 0
-198 65 0
-198 -72 0
-198 47 0
-198 -44 0
-198 85 0
198 -57 14 68 6 -33 -65 72 -47 44 -85 0
-199 -97 0
-199 92 0
-199 -65 0
-199 54 0
-199 -50 0
-199 -15 0
-199 48 0
-199 55 0
-199 4 0
-199 38 0
199 97 -92 65 -54 50 15 -48 -55 -4 -38 0
-200 44 0
-200 -18 0
-200 60 0
-200 -65 0
-200 98 0
-200 46 0
-200 70 0
-200 -93 0
-200 32 0
-200 75 0
200 -44 18 -60 65 -98 -46 -70 93 -32 -75 0
191 192 193 194 195 196 197 198 199 200 0
